c Random 8-CNF over 30 variables and 270 clauses
c Generated with `cnfgen`
c (C) 2012-2016 Massimo Lauria <lauria.massimo@gmail.com>
c https://massimolauria.github.io/cnfgen
c
c COMMAND LINE: cnfgen --output tmp-8-30-270.dimacs --output-format dimacs randkcnf 8 30 270
c
c sdimacs generated by gen-sdimacs
c
p cnf 30 270
e 16 17 18 19 20 21 22 23 24 25 26 27 28 29 30 0
r 0.37 1 2 3 4 5 6 7 8 9 10 11 12 13 14 15 0
-1 -3 -6 12 19 21 -22 -26 0
-6 12 -22 23 -24 -25 27 -29 0
-3 -16 17 -19 22 -26 -28 29 0
-1 -9 -14 16 -17 -18 21 23 0
2 -7 -10 11 12 -15 22 30 0
-7 9 11 18 -19 21 -25 27 0
-5 -6 -7 14 -15 19 -20 -22 0
5 -7 -10 11 17 -19 -20 29 0
1 -2 8 -14 16 18 -20 23 0
-1 -5 13 17 -19 -27 28 30 0
-4 -9 14 -15 -22 -23 24 -29 0
2 6 -14 17 20 -21 28 -30 0
2 -5 6 -7 -13 18 23 -28 0
-4 7 -8 -16 18 19 25 -30 0
4 -7 -10 -14 -18 -19 20 -30 0
-1 -7 -9 12 13 17 -22 -24 0
3 -4 -5 13 15 -19 -25 -27 0
2 4 -7 23 -26 27 29 30 0
-3 -6 -7 15 -16 -19 -22 -29 0
3 4 -5 6 -15 17 22 -28 0
-4 -5 13 -22 -24 -25 26 -27 0
-2 -3 9 10 -19 22 23 28 0
-8 13 16 -18 -25 -26 -28 29 0
4 -5 -7 9 12 -18 26 -29 0
7 10 13 -16 -21 -26 -27 -30 0
2 -10 -15 -18 21 28 29 30 0
-1 8 -12 -15 -17 -21 -23 27 0
2 -4 12 -13 14 15 -29 -30 0
6 -7 8 9 14 -16 -21 -29 0
-5 11 12 14 -17 19 23 26 0
2 4 10 -11 23 25 26 -30 0
3 4 -8 10 -15 -17 -18 21 0
18 -19 -21 -23 24 25 -26 -30 0
-1 -5 -6 -7 10 -14 18 24 0
4 -6 -8 -14 -17 18 19 26 0
-4 -10 -11 12 -14 15 29 30 0
3 8 -13 18 -19 20 -25 -29 0
-1 -2 -5 11 15 17 22 -27 0
-2 -3 -4 21 23 -26 -27 29 0
-3 -4 -6 -7 -10 22 23 -26 0
8 -9 -15 20 -21 -22 24 -26 0
-4 -5 -14 -16 18 -22 -25 -29 0
-1 -3 6 13 -19 -25 26 27 0
-2 3 5 -6 8 -16 17 -19 0
-2 -4 6 15 -17 -21 24 -26 0
2 -5 6 -9 11 20 25 -28 0
-5 -10 14 -18 21 22 -26 27 0
3 -10 -14 -17 -21 -28 -29 -30 0
-2 10 15 17 -19 -20 22 -29 0
2 -6 8 9 14 -15 17 28 0
-1 2 -3 -4 -5 6 -11 -20 0
5 -6 11 -12 13 15 -27 -30 0
-6 8 9 10 -12 22 -24 28 0
-1 -2 3 -9 19 25 -27 -30 0
1 -3 -5 8 14 20 -22 -28 0
4 8 11 -12 16 26 -27 -29 0
-5 -11 -18 20 -21 22 24 27 0
-1 6 -11 12 -14 15 20 -23 0
-4 6 -8 19 -21 -22 25 -26 0
1 2 -8 15 20 -25 26 -28 0
-5 8 15 17 -19 -25 26 27 0
6 -8 -10 -18 -20 -24 27 28 0
6 9 -10 14 18 -19 -24 -30 0
5 -10 12 16 -20 -21 -22 -29 0
-9 -11 -17 18 -19 -23 -27 28 0
5 -6 -11 -17 22 -26 27 -30 0
1 7 -12 -13 -14 -16 -26 30 0
-2 -4 5 6 8 10 13 -26 0
-1 3 -4 -10 14 22 24 28 0
-4 -7 9 -10 -17 20 22 30 0
-1 3 5 16 -17 -23 25 -29 0
-4 -8 -14 16 -19 23 -25 29 0
2 6 -8 -11 21 23 26 29 0
1 -7 -8 -16 -18 21 22 -29 0
-4 6 -8 -14 16 22 -24 -29 0
2 5 11 -13 -15 19 -21 -22 0
3 4 7 -9 13 26 27 -28 0
-8 9 -10 -11 -23 24 26 28 0
-2 4 6 -7 14 17 19 -22 0
-9 -11 -14 -16 17 -20 -27 30 0
-1 6 -8 -9 -10 18 -23 25 0
1 3 -16 19 21 -23 -24 -30 0
-4 -11 -12 -14 23 -26 29 30 0
-4 -5 7 -12 -13 16 -20 -21 0
8 -15 18 19 -23 24 28 -29 0
-14 -19 -20 21 -23 -24 -26 -29 0
-1 5 10 -11 13 16 26 -28 0
1 -3 -10 -11 12 20 -27 29 0
2 -5 10 13 17 18 -20 25 0
6 8 10 -22 26 -28 -29 -30 0
-1 -4 -12 13 19 20 -24 29 0
-3 -4 6 11 17 -20 -24 26 0
-2 8 13 -17 19 -22 23 27 0
-7 -8 11 -13 14 26 -29 30 0
-1 -3 6 7 23 -24 -29 -30 0
7 15 16 -17 20 -23 24 28 0
-3 -4 -6 11 -12 -13 -17 -27 0
7 10 -12 14 -23 24 26 -30 0
-6 7 -11 -13 15 23 24 -29 0
5 9 -10 -11 18 22 -25 -30 0
1 3 -5 11 -21 -24 28 -30 0
2 6 -11 15 18 21 25 -28 0
-3 4 -7 -16 17 -19 -21 29 0
-3 12 14 -19 22 23 -29 30 0
-2 3 -6 -7 -14 -20 28 29 0
-1 -5 -7 10 12 24 27 -30 0
-2 4 10 -12 17 -19 -23 25 0
-2 -5 8 11 14 22 26 27 0
3 6 -11 -15 -18 20 22 -26 0
-6 9 15 21 22 28 29 30 0
-1 2 -10 -13 -16 -17 21 -25 0
8 -10 15 -17 -19 21 -22 27 0
-1 6 -7 11 18 -25 -28 -30 0
5 -6 21 22 24 -25 -29 30 0
-2 6 -14 16 -17 18 20 30 0
3 -6 -9 -10 -15 20 -23 24 0
-2 -4 7 13 -24 -26 28 -29 0
1 4 -6 -15 18 20 22 27 0
-1 2 -4 8 -12 -15 -18 24 0
-5 -11 -13 -17 -22 24 -25 -28 0
-4 6 -8 -11 -13 16 -18 -30 0
10 -12 -19 -21 22 -24 -26 29 0
5 10 11 20 23 26 29 -30 0
2 -7 10 -12 13 -23 -24 30 0
7 -9 12 16 -19 -24 -27 30 0
-2 -9 -11 13 18 -20 22 -26 0
1 -5 -6 -12 -13 -21 -25 28 0
-7 -8 -11 14 18 21 25 28 0
-4 -14 -15 -20 21 23 -24 -25 0
-3 5 6 -7 10 12 -13 18 0
-6 7 -12 -13 -15 20 -23 -26 0
3 5 15 16 -20 21 -22 -23 0
2 -5 6 12 -16 19 -26 -29 0
1 5 7 9 -10 11 16 21 0
6 7 9 -12 -15 18 -27 -29 0
-4 -5 6 8 -13 15 -21 -26 0
2 -4 -5 -17 20 -26 27 29 0
-7 8 -11 -15 16 22 28 -30 0
-1 -4 -8 10 -11 14 -20 29 0
3 7 12 13 17 19 28 30 0
1 -6 11 -13 16 20 -25 -29 0
-2 -13 15 -18 20 21 26 -30 0
7 -8 -13 -17 23 -24 -29 30 0
1 2 -13 -14 20 -21 -24 25 0
1 2 11 12 -15 17 -22 -24 0
-2 -7 13 15 -21 23 25 29 0
-3 5 11 -13 16 -17 -26 27 0
-1 -4 -5 7 -10 -22 25 26 0
1 6 8 12 -13 23 24 27 0
2 5 9 15 -16 -18 23 -28 0
-2 4 -12 16 -19 -20 23 -26 0
2 14 18 20 -21 26 28 30 0
9 -12 -14 15 -21 -23 -27 30 0
3 4 5 16 -20 21 -24 27 0
4 8 10 15 18 26 -27 29 0
-3 4 8 -13 -16 24 -29 -30 0
1 3 -5 9 -12 -13 26 -29 0
6 -7 -18 -21 22 23 -24 -30 0
-3 -10 -15 17 19 -22 25 28 0
4 -5 -7 -12 -14 17 -21 -23 0
1 2 3 -9 11 -12 -21 22 0
4 -7 12 -15 17 21 27 29 0
-2 4 -5 10 -11 22 -25 28 0
-2 3 6 -11 12 -22 23 -25 0
5 -6 17 -18 21 -22 -26 -27 0
6 -13 15 -17 18 20 -28 30 0
-4 -6 -10 -15 -16 -20 -26 -27 0
2 -5 8 11 15 -20 -29 30 0
4 6 7 -11 -15 -17 23 25 0
1 2 -6 9 11 -15 -23 29 0
-12 13 16 -17 19 -22 23 26 0
-12 13 17 -18 -20 22 25 30 0
2 6 -9 -14 15 19 -23 24 0
-2 -11 15 -18 -19 -21 22 28 0
1 2 -3 -7 10 11 17 29 0
1 -2 -6 -11 -14 -22 24 30 0
1 -4 -5 7 -21 22 -25 -27 0
-2 4 5 -9 -10 -18 -23 -26 0
4 -6 9 -11 12 16 19 27 0
-1 -6 11 13 15 17 -19 -30 0
1 -4 -6 -10 19 -21 24 25 0
-5 10 -14 -15 19 -23 24 30 0
1 -6 11 -14 -16 19 -20 27 0
1 8 -11 13 -15 -21 27 -28 0
2 5 10 -12 18 -21 24 26 0
1 11 -17 -18 -20 21 -26 -29 0
-2 -4 7 16 -20 -21 -23 30 0
-1 2 -7 -15 -21 -23 -26 27 0
4 9 15 16 17 -18 -23 29 0
-2 -6 13 16 -17 21 -25 30 0
2 3 -5 -9 12 21 26 30 0
-3 8 13 -16 18 19 -24 -29 0
9 11 15 17 18 20 27 -29 0
3 4 -9 -10 13 14 18 25 0
-1 4 7 -12 -15 18 27 -30 0
2 3 -6 8 -16 -21 23 -29 0
-4 -8 14 16 -19 -23 -26 -30 0
1 -8 -10 12 14 -15 -22 -29 0
-4 -9 11 -13 14 -17 -20 23 0
-7 -10 11 12 -13 -21 -24 25 0
3 -7 10 18 -20 -22 -24 25 0
16 19 21 -22 -26 -27 28 29 0
7 -9 10 11 15 -21 23 -26 0
-1 3 6 17 20 -24 -28 29 0
2 6 -7 17 -18 -24 28 30 0
5 6 -7 -11 15 16 18 26 0
3 7 8 -10 -11 15 -18 26 0
-4 -8 9 -10 -11 14 17 -25 0
-1 -2 -7 14 16 17 24 -26 0
3 -4 -10 -12 18 -20 -21 -25 0
-4 9 12 17 22 24 25 -30 0
-5 7 13 -18 21 26 28 30 0
-4 -7 12 -13 -14 15 -24 -29 0
4 8 -9 12 13 17 -21 26 0
-10 -11 17 -18 -21 -24 -26 27 0
-2 6 -15 -21 23 -24 28 30 0
3 10 12 -13 17 26 -27 29 0
-1 2 3 4 5 12 -13 15 0
-2 4 5 6 11 13 -24 -29 0
3 -10 13 16 17 20 -21 -24 0
1 -2 3 13 -14 16 -19 -26 0
-10 -16 -17 -20 -24 25 -29 -30 0
-2 6 -8 11 12 -16 24 26 0
3 4 -7 9 14 17 -22 -28 0
-1 -3 -4 13 -16 18 -25 30 0
-4 -6 7 17 21 -22 25 29 0
-1 -11 -14 16 -18 -19 25 27 0
-1 -2 7 -8 10 -16 28 29 0
-4 -13 15 16 -17 -18 26 -30 0
-2 -6 10 -14 -15 16 25 26 0
2 9 -10 14 -15 -16 -17 -19 0
-7 12 -13 -15 -19 21 -27 30 0
1 -3 7 10 -12 18 -24 29 0
-4 17 -18 -21 23 -28 29 30 0
3 -11 -12 -13 19 -20 23 -28 0
5 -10 15 -16 -20 22 -25 -29 0
-2 -3 -5 -6 8 10 17 -21 0
-4 -10 -11 12 14 19 -25 30 0
1 2 5 -14 -17 18 -24 25 0
-3 4 -16 -17 -19 -24 -26 -30 0
1 -2 -5 10 21 23 25 -30 0
3 -6 13 -17 -18 -21 -27 30 0
-4 -9 -23 -25 26 -27 -29 -30 0
1 -5 -17 -19 20 -26 -27 -28 0
2 7 8 -11 -15 -20 -26 -28 0
3 -15 -17 -20 22 -23 -27 29 0
6 7 -11 -14 20 22 24 27 0
-1 -2 7 13 15 22 25 28 0
-1 -2 5 10 -14 16 17 22 0
-1 -7 9 -11 -12 15 -23 -25 0
-2 -4 -5 -7 9 -15 -16 -22 0
-1 5 13 18 -19 -26 27 -30 0
5 -6 -13 15 21 -24 29 30 0
3 -4 10 11 -14 24 -28 -30 0
-1 -2 -3 7 -13 19 -21 -26 0
1 -11 12 -24 -25 -26 28 29 0
-2 9 -15 -16 -17 -18 -23 -25 0
4 -5 -11 13 17 22 26 -29 0
1 -2 5 -14 -17 -18 23 28 0
-1 -4 13 -14 19 20 -23 24 0
5 -8 10 -12 18 -20 23 -27 0
11 -17 -18 24 -25 26 -28 -30 0
2 -4 -5 7 11 17 -22 28 0
1 11 -21 24 -25 27 28 30 0
-7 9 -14 17 20 26 27 -28 0
-2 -6 -7 -12 16 19 26 -29 0
-1 6 -7 -8 19 22 -26 28 0
-2 6 -7 8 15 -16 22 -26 0
-13 -16 -17 21 -22 -23 -25 -30 0
-4 -5 -10 12 -14 21 24 28 0
